DIMACS2
40 148 47 70 139 66 197 23 222 100 208 124 156 104 252 257 268 64 310 0 178 188 269 126 274 198 265 50 215 109 313 33 245 58 255 160 87 279 94 157 117
p edge 320 322
e 0 210 24.0
e 1 29 1.0
e 2 101 1.0
e 3 251 1.0
e 3 0 1.0
e 4 104 32.0
e 5 0 27.0
e 6 108 4.0
e 7 254 2.0
e 8 68 3.0
e 9 66 47.0
e 10 314 2.0
e 11 135 1.0
e 11 3 3.0
e 12 235 1.0
e 13 211 1.0
e 14 37 1.0
e 15 37 1.0
e 16 110 1.0
e 17 284 1.0
e 18 182 1.0
e 19 199 3.0
e 20 177 1.0
e 21 235 1.0
e 22 317 1.0
e 23 135 2.0
e 24 263 1.0
e 25 43 1.0
e 26 202 1.0
e 27 199 1.0
e 28 80 2.0
e 29 72 1.0
e 30 15 1.0
e 31 91 1.0
e 32 241 4.0
e 32 11 1.0
e 33 54 9.0
e 34 127 1.0
e 35 152 9.0
e 36 121 1.0
e 37 284 2.0
e 38 218 2.0
e 39 302 4.0
e 40 228 3.0
e 41 49 2.0
e 42 298 1.0
e 43 258 1.0
e 44 100 17.0
e 45 269 13.0
e 46 103 3.0
e 47 291 33.0
e 48 124 19.0
e 49 287 1.0
e 50 161 35.0
e 51 67 2.0
e 52 275 1.0
e 53 189 6.0
e 54 164 15.0
e 55 132 2.0
e 56 169 1.0
e 57 83 1.0
e 58 313 3.0
e 59 214 1.0
e 60 0 37.0
e 61 160 13.0
e 62 288 1.0
e 63 131 1.0
e 64 243 10.0
e 65 48 2.0
e 66 79 14.0
e 67 8 1.0
e 68 296 4.0
e 69 83 1.0
e 70 121 31.0
e 71 276 1.0
e 72 306 2.0
e 73 284 1.0
e 74 94 8.0
e 75 120 4.0
e 76 251 1.0
e 77 190 5.0
e 78 146 3.0
e 79 28 1.0
e 80 230 1.0
e 81 177 1.0
e 82 43 1.0
e 83 177 1.0
e 84 25 1.0
e 85 84 1.0
e 86 58 12.0
e 87 31 16.0
e 88 6 1.0
e 89 132 2.0
e 90 34 1.0
e 91 24 1.0
e 92 124 4.0
e 93 208 6.0
e 94 85 42.0
e 95 135 1.0
e 96 168 1.0
e 97 7 2.0
e 98 13 1.0
e 99 236 8.0
e 100 187 45.0
e 101 184 1.0
e 102 80 1.0
e 103 175 3.0
e 104 231 15.0
e 105 142 2.0
e 106 309 1.0
e 107 247 5.0
e 108 216 1.0
e 109 92 49.0
e 110 167 3.0
e 111 224 1.0
e 112 198 1.0
e 113 149 2.0
e 114 146 2.0
e 115 14 1.0
e 116 109 46.0
e 117 132 29.0
e 118 146 4.0
e 119 111 1.0
e 121 133 1.0
e 122 302 5.0
e 123 181 1.0
e 124 84 35.0
e 125 49 2.0
e 126 317 14.0
e 127 2 1.0
e 128 113 2.0
e 129 52 1.0
e 130 101 1.0
e 131 295 1.0
e 132 144 1.0
e 133 186 1.0
e 134 145 1.0
e 135 277 2.0
e 136 23 36.0
e 137 239 1.0
e 138 285 1.0
e 139 287 42.0
e 140 191 2.0
e 141 11 1.0
e 142 78 2.0
e 143 146 1.0
e 144 235 2.0
e 145 219 5.0
e 146 139 12.0
e 147 197 16.0
e 148 91 44.0
e 149 4 1.0
e 150 204 1.0
e 151 225 6.0
e 152 126 19.0
e 153 113 2.0
e 154 62 1.0
e 155 50 5.0
e 156 277 2.0
e 157 9 3.0
e 158 207 3.0
e 159 23 15.0
e 160 285 46.0
e 161 303 12.0
e 162 110 11.0
e 163 199 1.0
e 164 77 12.0
e 165 4 1.0
e 166 310 17.0
e 167 200 5.0
e 168 136 3.0
e 169 245 18.0
e 170 198 18.0
e 171 315 1.0
e 172 74 9.0
e 173 83 1.0
e 174 128 1.0
e 175 293 1.0
e 176 87 37.0
e 177 4 3.0
e 178 10 43.0
e 179 170 1.0
e 180 109 1.0
e 181 309 1.0
e 182 253 1.0
e 183 281 1.0
e 184 56 1.0
e 185 38 1.0
e 186 78 1.0
e 187 145 1.0
e 188 65 35.0
e 189 225 1.0
e 190 111 2.0
e 191 104 26.0
e 192 115 4.0
e 193 35 1.0
e 194 71 2.0
e 195 209 3.0
e 196 69 1.0
e 197 144 44.0
e 198 47 17.0
e 199 287 1.0
e 200 232 1.0
e 201 219 5.0
e 202 37 1.0
e 203 22 1.0
e 204 182 1.0
e 205 273 1.0
e 206 213 1.0
e 207 252 41.0
e 208 241 15.0
e 209 6 3.0
e 210 278 1.0
e 211 111 1.0
e 212 222 24.0
e 213 305 2.0
e 214 186 3.0
e 215 195 22.0
e 216 7 1.0
e 217 174 1.0
e 218 88 1.0
e 219 265 46.0
e 220 270 4.0
e 221 110 1.0
e 222 110 35.0
e 223 139 27.0
e 224 202 1.0
e 225 117 31.0
e 226 298 1.0
e 227 79 1.0
e 228 214 1.0
e 229 235 1.0
e 230 302 1.0
e 231 194 2.0
e 232 308 1.0
e 233 107 3.0
e 234 179 1.0
e 235 72 3.0
e 236 252 34.0
e 237 96 1.0
e 238 117 35.0
e 239 75 4.0
e 240 60 1.0
e 241 75 6.0
e 242 26 2.0
e 243 47 37.0
e 244 133 1.0
e 245 175 8.0
e 246 54 17.0
e 247 175 6.0
e 248 198 21.0
e 249 124 48.0
e 250 198 13.0
e 251 134 2.0
e 252 242 19.0
e 253 258 1.0
e 254 16 1.0
e 255 290 10.0
e 256 98 1.0
e 257 36 7.0
e 258 26 1.0
e 259 221 7.0
e 260 33 27.0
e 261 150 1.0
e 262 289 2.0
e 263 35 1.0
e 264 136 11.0
e 265 91 24.0
e 266 244 1.0
e 267 62 1.0
e 268 228 46.0
e 269 14 30.0
e 270 296 7.0
e 271 301 1.0
e 272 164 3.0
e 273 220 1.0
e 274 142 18.0
e 275 193 1.0
e 276 170 1.0
e 277 267 1.0
e 278 310 33.0
e 279 51 31.0
e 280 138 1.0
e 281 284 1.0
e 282 189 2.0
e 283 302 3.0
e 284 140 1.0
e 285 0 20.0
e 286 252 39.0
e 287 169 1.0
e 288 96 1.0
e 289 241 2.0
e 290 179 6.0
e 291 177 2.0
e 292 221 10.0
e 293 214 1.0
e 294 172 5.0
e 295 84 1.0
e 296 197 27.0
e 297 68 2.0
e 298 271 1.0
e 299 44 2.0
e 300 178 34.0
e 301 57 1.0
e 302 231 1.0
e 303 184 2.0
e 304 247 5.0
e 305 185 1.0
e 306 228 1.0
e 307 288 1.0
e 308 199 1.0
e 309 227 1.0
e 310 274 46.0
e 311 98 1.0
e 312 37 1.0
e 313 61 24.0
e 314 291 3.0
e 315 16 7.0
e 316 147 3.0
e 317 79 2.0
e 318 131 1.0
e 319 171 5.0
